NAME : att48.tsp
TYPE : TOUR
DIMENSION : 48
TOUR_LENGTH : 35002.453762684454
TOUR_SECTION
1
40
22
16
3
34
41
29
2
26
4
35
45
10
24
42
5
48
32
39
25
14
13
21
47
23
11
12
15
20
33
46
36
30
43
17
27
19
37
6
28
7
18
44
31
38
9
8
-1
